language ESSENCE' 1.0
$ loaded file: carseqdata/csplib-instance-34
letting numcars=200
letting numclasses=24
letting numoptions=5
letting optMax=[1, 2, 1, 2, 1]
letting windowSize=[2, 3, 3, 5, 5]
letting numberPerClass=[3, 1, 41, 13, 4, 3, 26, 1, 1, 3, 1, 9, 1, 2, 12, 2, 4, 36, 12, 5, 13, 1, 3, 3]
letting optionsRequired=[[0, 1, 0, 1, 1], [0, 1, 1, 0, 0], [1, 0, 0, 0, 0], [1, 1, 0, 0, 0], [1, 0, 1, 1, 0], [1, 0, 0, 0, 1], [0, 0, 0, 1, 0], [0, 0, 1, 1, 1], [1, 1, 1, 0, 0], [0, 1, 1, 1, 0], [1, 0, 0, 1, 1], [1, 0, 1, 0, 0], [1, 1, 1, 1, 0], [0, 0, 1, 0, 1], [0, 0, 0, 0, 1], [1, 0, 0, 1, 0], [1, 1, 0, 1, 0], [0, 1, 0, 0, 0], [0, 1, 0, 1, 0], [0, 0, 1, 1, 0], [0, 0, 1, 0, 0], [0, 1, 1, 0, 1], [1, 1, 0, 0, 1], [0, 1, 0, 0, 1]]
